NAME: ./prFile/tspFile/tsp_file60.tsp
COMMENT: TSP file generated by Python
TYPE: TSP
DIMENSION: 40
EDGE_WEIGHT_TYPE: EUC_2D
NODE_COORD_SECTION
1 86 13
2 46 44
3 80 93
4 85 58
5 90 72
6 41 55
7 81 14
8 99 91
9 80 8
10 25 88
11 57 18
12 27 40
13 85 17
14 82 90
15 44 69
16 73 65
17 52 62
18 98 52
19 98 11
20 61 39
21 58 36
22 19 92
23 98 27
24 13 3
25 93 26
26 1 83
27 21 66
28 90 69
29 38 82
30 63 27
31 20 94
32 65 18
33 66 54
34 69 11
35 4 14
36 78 90
37 99 90
38 71 89
39 57 24
40 8 70
EOF
